Problem:    
Rows:       105
Columns:    45 (34 integer, 34 binary)
Non-zeros:  302
Status:     INTEGER OPTIMAL
Objective:  value = 47.011769 (MINimum)

   No.   Row name        Activity     Lower bound   Upper bound
------ ------------    ------------- ------------- -------------
     1 r.5                   547.012             0               
     2 r.6                  -452.988      -459.798               
     3 r.7                   47.0118             0               
     4 r.8                   19.5422      -480.944               
     5 r.9                   47.0118             0               
     6 r.10                  -12.394      -471.011               
     7 r.11                  547.012             0               
     8 r.12                 -459.257      -489.521               
     9 r.13                  47.0118             0               
    10 r.14                  6.81021      -480.796               
    11 r.15                  547.012             0               
    12 r.16                 -452.988      -493.732               
    13 r.17                  47.0118             0               
    14 r.18                  -41.383       -475.85               
    15 r.19                  547.012             0               
    16 r.20                 -469.735      -489.277               
    17 r.21                  47.0118             0               
    18 r.22                  2.23089      -498.175               
    19 r.23                  547.012             0               
    20 r.24                 -497.769      -497.769               
    21 r.25                        1             1             = 
    22 r.26                        1             1             = 
    23 r.27                        1             1             = 
    24 r.28                        1             1             = 
    25 r.29                        1             1             = 
    26 r.30                  440.594        28.989               
    27 r.31                 -440.594      -459.798               
    28 r.32                  21.2013       10.4787               
    29 r.33                 -21.2013      -480.944               
    30 r.34                  459.798       19.2042               
    31 r.35                 -459.798      -459.798               
    32 r.36                  27.4696        6.2683               
    33 r.37                 -27.4696      -480.944               
    34 r.38                  411.605       24.1499               
    35 r.39                 -411.605      -459.798               
    36 r.40                  10.7226       10.7226               
    37 r.41                 -10.7226      -480.944               
    38 r.42                 -455.219      -455.219               
    39 r.43                  17.3113      -471.273               
    40 r.44                 -455.219      -455.219               
    41 r.45                  17.3113      -471.273               
    42 r.46                  59.4058       40.2016               
    43 r.47                 -59.4058      -471.011               
    44 r.48                  478.799       19.0561               
    45 r.49                 -478.799      -489.521               
    46 r.50                  19.2042       19.2042               
    47 r.51                 -19.2042      -471.011               
    48 r.52                   6.2683        6.2683               
    49 r.53                  -6.2683      -489.521               
    50 r.54                  471.011       24.1499               
    51 r.55                 -471.011      -471.011               
    52 r.56                  489.521       10.7226               
    53 r.57                 -489.521      -489.521               
    54 r.58                 -14.6249      -466.432               
    55 r.59                 -461.487       -479.85               
    56 r.60                 -14.6249      -466.432               
    57 r.61                 -461.487       -479.85               
    58 r.62                  40.2016       40.2016               
    59 r.63                 -40.2016      -480.796               
    60 r.64                   472.53       19.0561               
    61 r.65                  -472.53      -493.732               
    62 r.66                  480.796        28.989               
    63 r.67                 -480.796      -480.796               
    64 r.68                  493.732       10.4787               
    65 r.69                 -493.732      -493.732               
    66 r.70                  451.807       24.1499               
    67 r.71                 -451.807      -480.796               
    68 r.72                  483.253       10.7226               
    69 r.73                 -483.253      -493.732               
    70 r.74                  4.57932      -476.216               
    71 r.75                 -455.219       -484.06               
    72 r.76                  4.57932      -476.216               
    73 r.77                 -455.219       -484.06               
    74 r.78                  88.3947       40.2016               
    75 r.79                 -88.3947       -475.85               
    76 r.80                  489.277       19.0561               
    77 r.81                 -489.277      -489.277               
    78 r.82                   28.989        28.989               
    79 r.83                  -28.989       -475.85               
    80 r.84                  10.4787       10.4787               
    81 r.85                 -10.4787      -489.277               
    82 r.86                  48.1932       19.2042               
    83 r.87                 -48.1932       -475.85               
    84 r.88                   16.747        6.2683               
    85 r.89                  -16.747      -489.277               
    86 r.90                 -43.6139      -471.271               
    87 r.91                 -471.966      -479.606               
    88 r.92                 -43.6139      -471.271               
    89 r.93                 -471.966      -479.606               
    90 r.94                 -455.219      -455.219               
    91 r.95                  17.3113      -471.273               
    92 r.96                 -455.219      -455.219               
    93 r.97                  17.3113      -471.273               
    94 r.98                 -14.6249      -466.432               
    95 r.99                 -461.487       -479.85               
    96 r.100                -14.6249      -466.432               
    97 r.101                -461.487       -479.85               
    98 r.102                 4.57932      -476.216               
    99 r.103                -455.219       -484.06               
   100 r.104                 4.57932      -476.216               
   101 r.105                -455.219       -484.06               
   102 r.106                -43.6139      -471.271               
   103 r.107                -471.966      -479.606               
   104 r.108                -43.6139      -471.271               
   105 r.109                -471.966      -479.606               

   No. Column name       Activity     Lower bound   Upper bound
------ ------------    ------------- ------------- -------------
     1 tt                    47.0118             0               
     2 s_1_1        *              1             0             1 
     3 t_1_1                       0             0               
     4 s_2_1        *              0             0             1 
     5 t_2_1                 27.4696             0               
     6 s_1_2        *              0             0             1 
     7 t_1_2                 59.4058             0               
     8 s_2_2        *              1             0             1 
     9 t_2_2                  6.2683             0               
    10 s_1_3        *              0             0             1 
    11 t_1_3                 40.2016             0               
    12 s_2_3        *              1             0             1 
    13 t_2_3                       0             0               
    14 s_1_4        *              0             0             1 
    15 t_1_4                 88.3947             0               
    16 s_2_4        *              1             0             1 
    17 t_2_4                  16.747             0               
    18 s_1_5        *              0             0             1 
    19 t_1_5                 44.7809             0               
    20 s_2_5        *              1             0             1 
    21 t_2_5                 44.7809             0               
    22 u_1_1_2      *              1             0             1 
    23 u_2_1_2      *              0             0             1 
    24 u_1_1_3      *              1             0             1 
    25 u_2_1_3      *              0             0             1 
    26 u_1_1_4      *              1             0             1 
    27 u_2_1_4      *              0             0             1 
    28 u_1_2_1      *              0             0             1 
    29 u_2_2_1      *              1             0             1 
    30 u_1_2_3      *              0             0             1 
    31 u_2_2_3      *              0             0             1 
    32 u_1_2_4      *              1             0             1 
    33 u_2_2_4      *              1             0             1 
    34 u_1_3_1      *              0             0             1 
    35 u_2_3_1      *              1             0             1 
    36 u_1_3_2      *              1             0             1 
    37 u_2_3_2      *              1             0             1 
    38 u_1_3_4      *              1             0             1 
    39 u_2_3_4      *              1             0             1 
    40 u_1_4_1      *              0             0             1 
    41 u_2_4_1      *              1             0             1 
    42 u_1_4_2      *              0             0             1 
    43 u_2_4_2      *              0             0             1 
    44 u_1_4_3      *              0             0             1 
    45 u_2_4_3      *              0             0             1 

Integer feasibility conditions:

KKT.PE: max.abs.err = 1.14e-13 on row 16
        max.rel.err = 1.10e-16 on row 16
        High quality

KKT.PB: max.abs.err = 5.68e-14 on row 51
        max.rel.err = 3.64e-15 on row 36
        High quality

End of output
